
******************************************************************************
This program contains Ipopt, a library for large-scale nonlinear optimization.
 Ipopt is released as open source code under the Eclipse Public License (EPL).
         For more information visit http://projects.coin-or.org/Ipopt
******************************************************************************

This is Ipopt version 3.12.6, running with linear solver ma57.

Number of nonzeros in equality constraint Jacobian...:        0
Number of nonzeros in inequality constraint Jacobian.:        0
Number of nonzeros in Lagrangian Hessian.............:    15408

Total number of variables............................:     5184
                     variables with only lower bounds:        0
                variables with lower and upper bounds:     5184
                     variables with only upper bounds:        0
Total number of equality constraints.................:        0
Total number of inequality constraints...............:        0
        inequality constraints with only lower bounds:        0
   inequality constraints with lower and upper bounds:        0
        inequality constraints with only upper bounds:        0

iter    objective    inf_pr   inf_du lg(mu)  ||d||  lg(rg) alpha_du alpha_pr  ls
   0  0.0000000e+00 0.00e+00 3.75e-03  -1.0 0.00e+00    -  0.00e+00 0.00e+00   0
   1 -6.2486886e-03 0.00e+00 2.22e-16  -1.7 9.16e-04    -  1.00e+00 1.00e+00f  1
   2 -8.2470042e-02 0.00e+00 1.65e-05  -3.8 1.94e-02    -  9.69e-01 1.00e+00f  1
   3 -1.4482534e+00 0.00e+00 5.45e-04  -5.7 2.51e-01    -  6.42e-01 1.00e+00f  1
   4 -2.4760423e+00 0.00e+00 9.02e-04  -5.7 1.23e-01    -  7.34e-01 1.00e+00f  1
   5 -2.7626961e+00 0.00e+00 1.95e-04  -5.7 3.95e-02    -  7.46e-01 8.80e-01f  1
   6 -2.8309642e+00 0.00e+00 1.19e-04  -5.7 1.68e-02    -  1.00e+00 9.36e-01f  1
   7 -2.8413677e+00 0.00e+00 1.72e-16  -5.7 6.83e-03    -  1.00e+00 1.00e+00f  1
   8 -2.8475815e+00 0.00e+00 2.44e-04  -8.6 3.61e-03    -  9.63e-01 6.93e-01f  1
   9 -2.8495473e+00 0.00e+00 2.89e-04  -8.6 1.76e-03    -  1.00e+00 7.29e-01f  1
iter    objective    inf_pr   inf_du lg(mu)  ||d||  lg(rg) alpha_du alpha_pr  ls
  10 -2.8501335e+00 0.00e+00 1.01e-04  -8.6 7.17e-04    -  1.00e+00 8.44e-01f  1
  11 -2.8502309e+00 0.00e+00 1.86e-05  -8.6 1.78e-04    -  1.00e+00 9.39e-01f  1
  12 -2.8502374e+00 0.00e+00 1.88e-16  -8.6 5.70e-05    -  1.00e+00 1.00e+00f  1

Number of Iterations....: 12

                                   (scaled)                 (unscaled)
Objective...............:  -2.8502373867507815e+00   -2.8502373867507815e+00
Dual infeasibility......:   1.8778381627448937e-16    1.8778381627448937e-16
Constraint violation....:   0.0000000000000000e+00    0.0000000000000000e+00
Complementarity.........:   8.8276335585942555e-09    8.8276335585942555e-09
Overall NLP error.......:   8.8276335585942555e-09    8.8276335585942555e-09


Number of objective function evaluations             = 13
Number of objective gradient evaluations             = 13
Number of equality constraint evaluations            = 0
Number of inequality constraint evaluations          = 0
Number of equality constraint Jacobian evaluations   = 0
Number of inequality constraint Jacobian evaluations = 0
Number of Lagrangian Hessian evaluations             = 12
Total CPU secs in IPOPT (w/o function evaluations)   =      0.087
Total CPU secs in NLP function evaluations           =      0.090

EXIT: Optimal Solution Found.
Note: The following floating-point exceptions are signalling: IEEE_UNDERFLOW_FLAG IEEE_DENORMAL

 ** SUBROUTINE CUTEST_csetup: Warning. The problem has no general constraints. 
 ** Other tools may be preferable ** 

************************ CUTEst statistics ************************


 Package used            :  IPOPT
 Problem                 :  TORSIONF  
 # variables             =            5476
 # constraints           =               0
 # objective functions   =        0.2700000E+02
 # objective gradients   =        0.1400000E+02
 # objective Hessians    =        0.1300000E+02
 # Hessian-vector prdct  =        0.0000000E+00
 # constraints functions =        0.0000000E+00
 # constraints gradients =        0.0000000E+00
 # constraints Hessians  =        0.0000000E+00
 Exit code               =               0
 Final f                 =  -0.2850237E+01
 Set up time             =            0.19 seconds
 Solve time              =            0.26 seconds


******************************************************************

System Time =       0.1679999977 s.
